



































































21 38 
45 4 
76 41 
42 32 
24 48 
61 
34 44 
8 54 
57 51 
49 69 
10 29 
18 55 
62 71 
58 43 
20 6 
36 40 
3 7 
5 27 
53 33 
12 17 
35 37 
63 0 
19 70 
52 39 
73 2 
9 56 
28 
16 
68 67 
60 
66 
23 74 
1 14 
13 11 
46 
72 
26 25 
22 
47 
65 31 
59 
64 
30 
15 50 
75 


